benchmark_instances/dzn_benchmark_instances/benchmark_instance_9-1.dzn
% Input: sequence of points
seq_points = [|5,1
              |6,1
              |7,1
              |8,1
              |3,3
              |6,3
              |7,3
              |3,4
              |4,4
              |5,4
              |7,4
              |2,5
              |4,5
              |1,6
              |2,6
              |3,6
              |5,6
              |2,7
              |3,7
              |1,8
              |5,0
              |7,0
              |8,0
              |9,0
              |9,3
              |2,9
              |0,8
              |1,9
              |0,0
              |1,0
             |];

num_points = 30;
