benchmark_instances/lp_benchmark_instances/benchmark_instance_9-1.lp
% Input: sequence of points
point(5,1).
point(6,1).
point(7,1).
point(8,1).
point(3,3).
point(6,3).
point(7,3).
point(3,4).
point(4,4).
point(5,4).
point(7,4).
point(2,5).
point(4,5).
point(1,6).
point(2,6).
point(3,6).
point(5,6).
point(2,7).
point(3,7).
point(1,8).
point(5,0).
point(7,0).
point(8,0).
point(9,0).
point(9,3).
point(2,9).
point(0,8).
point(1,9).
point(0,0).
point(1,0).
